This is Ipopt version 3.10.1, running with linear solver mumps.

Number of nonzeros in equality constraint Jacobian...:      141
Number of nonzeros in inequality constraint Jacobian.:        0
Number of nonzeros in Lagrangian Hessian.............:     2019

Total number of variables............................:       72
                     variables with only lower bounds:        0
                variables with lower and upper bounds:       72
                     variables with only upper bounds:        0
Total number of equality constraints.................:       47
Total number of inequality constraints...............:        0
        inequality constraints with only lower bounds:        0
   inequality constraints with lower and upper bounds:        0
        inequality constraints with only upper bounds:        0

iter    objective    inf_pr   inf_du lg(mu)  ||d||  lg(rg) alpha_du alpha_pr  ls
   0 -1.5723418e-03 1.00e-02 4.79e-03  -1.0 0.00e+00    -  0.00e+00 0.00e+00   0
   1 -1.5789000e-03 2.41e-10 1.00e-03  -1.7 1.91e-02    -  9.92e-01 1.00e+00h  1
   2 -1.5033498e-03 4.44e-16 3.14e-03  -2.5 3.26e-02    -  9.77e-01 1.00e+00f  1
   3 -1.6609566e-03 2.22e-16 7.30e-04  -3.8 4.07e-02    -  9.30e-01 1.00e+00f  1
   4 -3.4134659e-03 2.22e-16 2.03e-03  -5.7 9.88e-02  -2.0 7.79e-01 1.00e+00f  1
   5 -6.9384708e-03 2.22e-16 5.12e-03  -5.7 1.60e-01  -1.6 8.37e-01 5.07e-01f  1
   6 -8.3256930e-03 9.46e-13 8.43e-03  -5.7 9.88e-02  -1.1 9.75e-01 2.24e-01f  1
   7 -8.3231062e-03 9.46e-13 6.94e-03  -5.7 2.96e-01  -1.6 1.72e-01 1.22e-04f 14
   8 -1.2025463e-02 7.51e-13 1.78e-02  -5.7 2.25e-01  -1.2 1.00e+00 2.06e-01f  1
   9 -1.3585030e-02 3.75e-13 2.46e-02  -5.7 5.68e-01  -1.7 1.21e-02 5.00e-01f  1
iter    objective    inf_pr   inf_du lg(mu)  ||d||  lg(rg) alpha_du alpha_pr  ls
  10 -1.3583461e-02 3.41e-12 7.33e-02  -5.7 7.78e-02  -0.3 1.00e+00 3.06e-01f  2
  11 -1.4268253e-02 3.13e-12 1.67e-02  -5.7 6.72e-02  -0.8 1.00e+00 8.40e-02f  1
  12 -2.9457748e-03 1.16e-12 8.74e-02  -5.7 6.87e-01  -1.3 2.78e-02 6.29e-01h  1
  13 -3.2369838e-03 1.07e-12 8.14e-02  -5.7 3.94e-01  -1.8 4.74e-01 7.36e-02f  1
  14 -4.4659431e-03 1.52e-13 1.29e-02  -5.7 5.88e-02  -1.4 1.00e+00 8.58e-01f  1
  15 -5.2797131e-03 2.22e-16 2.90e-03  -5.7 2.47e-02  -0.9 9.03e-01 1.00e+00f  1
  16 -6.3931004e-03 6.38e-13 7.53e-03  -5.7 1.50e-01  -1.4 1.00e+00 1.74e-01f  1
  17 -7.1943035e-03 1.26e-12 4.07e-03  -5.7 3.41e-02  -1.0 9.89e-01 5.57e-01f  1
  18 -7.9817207e-03 1.16e-12 1.58e-02  -5.7 2.13e-01  -1.5 1.00e+00 8.03e-02f  1
  19 -1.0324582e-02 2.22e-16 4.69e-03  -5.7 4.51e-02  -1.0 1.00e+00 1.00e+00f  1
iter    objective    inf_pr   inf_du lg(mu)  ||d||  lg(rg) alpha_du alpha_pr  ls
  20 -1.2346706e-02 2.22e-16 1.02e-02  -5.7 5.04e+00  -1.5 2.77e-02 6.27e-03f  1
  21 -1.3456051e-02 7.49e-13 1.51e-02  -5.7 8.70e-02  -1.1 1.00e+00 1.87e-01f  1
  22 -1.5366998e-02 2.53e-12 6.21e-03  -5.7 2.77e-02  -0.7 6.64e-01 1.00e+00f  1
  23 -2.2512504e-02 4.26e-12 1.02e-02  -5.7 1.44e-01  -1.1 1.00e+00 4.88e-01f  1
  24 -2.6660461e-02 4.75e-12 1.14e-02  -5.7 5.96e-02  -0.7 9.56e-01 5.10e-01f  1
  25 -1.4701897e-02 4.54e-12 2.41e-02  -5.7 2.93e+00  -1.2 1.98e-03 4.40e-02h  2
  26 -1.7056849e-02 2.22e-16 6.28e-03  -5.7 3.47e-02  -0.8 1.00e+00 1.00e+00F  1
  27 -2.4037159e-02 2.22e-16 9.80e-03  -5.7 2.14e-01  -1.2 4.22e-01 3.23e-01f  1
  28 -2.7569272e-02 2.22e-16 1.12e-02  -5.7 7.80e-02  -0.8 1.00e+00 3.32e-01f  1
  29 -2.9102128e-02 2.22e-16 1.45e-02  -5.7 2.66e-02  -0.4 1.00e+00 4.30e-01f  1
iter    objective    inf_pr   inf_du lg(mu)  ||d||  lg(rg) alpha_du alpha_pr  ls
  30 -3.6386627e-02 2.22e-16 1.99e-02  -5.7 1.12e-01  -0.9 1.00e+00 4.94e-01f  1
  31 -3.7058019e-02 2.22e-16 3.05e-02  -5.7 3.92e-02  -0.4 1.00e+00 1.26e-01f  1
  32 -5.0686108e-02 8.61e-12 1.71e-02  -5.7 1.67e-01  -0.9 9.24e-01 6.74e-01f  1
  33 -5.3641710e-02 6.44e-12 2.21e-02  -5.7 7.56e-02  -0.5 1.00e+00 2.52e-01f  1
  34 -7.4026387e-02 1.57e-11 2.97e-02  -5.7 5.56e-01  -1.0 1.70e-01 2.04e-01f  1
  35 -7.7127186e-02 1.36e-11 5.46e-02  -5.7 1.38e-01  -0.5 5.90e-01 1.33e-01f  1
  36 -7.1665481e-02 1.35e-11 3.52e-02  -5.7 2.08e+01  -1.0 8.07e-03 1.46e-03h  1
  37 -8.0642326e-02 9.41e-12 4.68e-02  -5.7 1.58e-01  -0.6 2.72e-02 3.05e-01f  1
  38 -8.3137299e-02 7.17e-12 5.36e-02  -5.7 5.39e-02  -0.2 7.37e-01 2.38e-01f  1
  39 -1.1558794e-01 3.23e-12 5.48e-02  -5.7 2.41e-01  -0.6 8.98e-02 5.50e-01f  1
iter    objective    inf_pr   inf_du lg(mu)  ||d||  lg(rg) alpha_du alpha_pr  ls
  40 -1.1558024e-01 3.23e-12 1.12e-01  -5.7 4.79e-01  -1.1 1.32e-02 5.32e-05f  8
  41 -1.2918709e-01 9.69e-12 1.09e-01  -5.7 8.49e-01  -0.7 4.33e-02 4.69e-02f  1
  42 -1.4417457e-01 6.34e-12 9.45e-02  -5.7 9.73e-02  -0.3 1.00e+00 3.46e-01f  1
  43 -1.5840903e-01 1.33e-15 5.31e-02  -5.7 3.59e-02   0.2 1.00e+00 1.00e+00f  1
  44 -1.7713992e-01 8.61e-12 6.22e-02  -5.7 1.64e-01  -0.3 6.87e-01 1.88e-01f  1
  45 -2.0048639e-01 9.31e-13 6.04e-02  -5.7 4.88e-02   0.1 1.00e+00 8.92e-01f  1
  46 -2.3784237e-01 7.94e-13 7.36e-02  -5.7 3.46e-01  -0.4 3.34e-01 1.47e-01f  1
  47 -2.9862521e-01 6.47e-11 8.77e-02  -5.7 7.84e-02   0.1 1.00e+00 8.25e-01f  1
  48 -3.3303109e-01 1.05e-11 1.03e-01  -5.7 3.43e-02   0.5 1.00e+00 8.37e-01f  1
  49 -3.4807180e-01 9.90e-12 3.06e-01  -5.7 2.00e-01   0.0 1.00e+00 5.94e-02f  1
iter    objective    inf_pr   inf_du lg(mu)  ||d||  lg(rg) alpha_du alpha_pr  ls
  50 -3.7832085e-01 5.51e-12 1.22e-01  -5.7 5.01e-02   0.4 1.00e+00 4.44e-01f  1
  51 -4.1027205e-01 5.09e-12 2.45e-01  -5.7 3.03e-01  -0.0 3.43e-01 7.46e-02f  1
  52 -4.3482438e-01 1.56e-11 2.42e-01  -5.7 4.36e-02   0.4 1.00e+00 3.06e-01f  1
  53 -4.3825098e-01 1.46e-11 2.24e-01  -5.7 5.90e-02  -0.1 1.03e-01 6.55e-02f  1
  54 -4.4426981e-01 2.68e-11 2.15e-01  -5.7 1.34e-01  -0.6 1.25e-01 4.81e-02f  1
  55 -4.4426869e-01 2.68e-11 2.07e-01  -5.7 3.40e+00    -  7.11e-03 9.09e-07f 18
  56 -4.4435740e-01 2.68e-11 2.08e-01  -5.7 6.80e+00    -  2.46e-05 5.61e-05f  1
  57 -4.4686283e-01 8.19e-11 3.29e-01  -5.7 3.93e-01  -1.0 7.34e-04 8.60e-03f  1
  58 -4.4686259e-01 8.19e-11 3.09e-01  -5.7 3.21e+00    -  2.17e-02 2.08e-07f 20
  59 -4.4686252e-01 8.19e-11 3.25e-01  -5.7 3.18e+00    -  1.48e-02 6.57e-08h 19
iter    objective    inf_pr   inf_du lg(mu)  ||d||  lg(rg) alpha_du alpha_pr  ls
  60 -4.4807589e-01 8.19e-11 6.77e-01  -5.7 1.77e+00  -1.5 9.75e-02 1.33e-03f  1
  61 -2.6529196e-01 7.08e-11 8.16e-01  -5.7 3.12e+00    -  8.24e-02 1.36e-01h  1
  62 -3.1189246e-01 6.68e-11 5.87e-01  -5.7 8.82e-01    -  4.89e-03 5.61e-02f  1
  63 -3.1567093e-01 6.65e-11 6.14e-01  -5.7 8.01e-01    -  3.71e-02 5.27e-03f  1
  64 -3.2302483e-01 6.48e-11 6.17e-01  -5.7 7.95e-01    -  2.30e-02 1.04e-02f  4
  65 -4.4874602e-01 1.05e-10 9.26e-01  -5.7 7.95e-01    -  5.23e-01 1.97e-01f  1
  66 -6.9883799e-01 1.44e-10 7.12e-01  -5.7 1.49e+00    -  5.25e-01 2.52e-01f  1
  67 -2.1226621e-01 5.55e-16 1.71e+00  -5.7 7.81e-01  -2.0 1.20e-01 1.00e+00h  1
  68 -3.9835720e-06 6.66e-16 1.53e+00  -5.7 4.61e+00    -  9.92e-02 1.16e-01h  1
  69 -3.2382349e-06 6.66e-16 1.52e+00  -5.7 1.69e+00    -  2.70e-03 2.70e-03s 14
iter    objective    inf_pr   inf_du lg(mu)  ||d||  lg(rg) alpha_du alpha_pr  ls
  70 -3.4368510e-06 5.55e-16 1.52e+00  -5.7 2.40e+00    -  5.80e-04 5.80e-04s 14
Restoration phase is called at point that is almost feasible,
  with constraint violation 4.218847e-15. Abort.

Number of Iterations....: 70

                                   (scaled)                 (unscaled)
Objective...............:  -3.4368510358567628e-06   -3.4368510358567628e-06
Dual infeasibility......:   1.5235561717783990e+00    1.5235561717783990e+00
Constraint violation....:   5.5511151231257827e-16    5.5511151231257827e-16
Complementarity.........:   1.4488185911497230e-04    1.4488185911497230e-04
Overall NLP error.......:   1.5235561717783990e+00    1.5235561717783990e+00


Number of objective function evaluations             = 170
Number of objective gradient evaluations             = 72
Number of equality constraint evaluations            = 170
Number of inequality constraint evaluations          = 0
Number of equality constraint Jacobian evaluations   = 1
Number of inequality constraint Jacobian evaluations = 0
Number of Lagrangian Hessian evaluations             = 71
Total CPU secs in IPOPT (w/o function evaluations)   =      0.110
Total CPU secs in NLP function evaluations           =      1.620

EXIT: Restoration Failed!
